<number of tasks>
50

<cycle time>
1000

<order strength>
0.202


<task times>
1 106
2 121
3 242
4 290
5 95
6 116
7 100
8 62
9 145
10 86
11 66
12 30
13 36
14 168
15 94
16 124
17 76
18 391
19 556
20 496
21 167
22 76
23 59
24 77
25 159
26 68
27 576
28 147
29 115
30 88
31 352
32 287
33 223
34 32
35 89
36 238
37 195
38 466
39 33
40 163
41 282
42 508
43 69
44 510
45 473
46 281
47 246
48 106
49 121
50 346

<precedence relations>
2,8
3,10
4,9
5,11
6,7
7,16
8,14
9,12
9,15
10,13
13,28
14,17
14,18
14,19
15,20
16,19
16,21
16,22
17,27
17,30
18,30
19,23
19,24
19,26
19,28
20,25
20,29
23,33
25,31
26,32
30,34
30,35
30,36
30,37
31,40
31,42
32,38
35,41
36,39
37,40
38,48
40,47
40,49
41,43
41,44
41,46
41,50
42,45

<end>
